
 102   30
  10   10   10   10   10   10   10   10   10   10   10   10   10   10   10   10   10   10   10   10   10   10   10   10   10   10   10   10   10   10

   0   0   0   0   0   0   0   0   0   0   0   0   0   0   0   0   0   0   0   0   0   0   0   0   0   0   0   0   0   0   0  29 2 3 4 5 6 7 8 9 10 11 12 13 14 16 17 18 20 21 22 23 24 25 28 29 30 31 32 33 41 
   9   0   1   0   0   0   0   0   0   0   0   0   0   0   0   0   0   0   0   1   0   0   0   0   0   0   0   0   0   2   1  17 70 64 63 62 60 59 57 51 50 49 46 43 42 40 39 35 19 
  10   0   0   0   0   0   0   0   0   0   0   0   0   0   0   1   0   0   0   0   0   0   0   1   0   0   0   0   1   8   0  13 101 68 65 61 55 51 49 43 39 38 36 27 15 
  10   0   0   1   0   0   2   1   0   0   0   0   0   0   0   0   0   0   0   0   8   0   0   0   0   0   1   0   0   0   0  17 99 76 73 68 64 62 61 59 55 53 47 45 44 40 39 38 26 
   1   0   0   0   0   0   0   0   0   0   0   0   0   1   0   0   0   0   0   0   0   0   0   0   0   0   0   0   0   0   0  11 98 73 62 61 56 53 50 48 40 34 26 
   8   0   0   0   0   0   0   6   0   0   0   1   0   0   0   0   0   0   0   0   0   4   0   0   0   0   0   0   0   0   0  15 100 95 90 76 72 68 65 59 58 55 51 49 48 39 38 
  10   0   0   0   0   0   0   0   0   0   0   0   0   0   0   0   0   0   0   0   0   0   0   0   0   0   0   0   0   0   0  15 101 98 95 76 74 73 70 68 60 59 57 54 53 44 38 
   6   0   0   0   0   0   5   0   0   0   0   0   0   0   0   0   0   0   0   0   0   0   0   0   0   0   0   0   0   0   0   7 93 58 57 55 39 37 27 
   5   0   0   0   2   0   0   0   0   0   0   0   0   0   0   0   0   0   1   0   0   0   0   0   1   0   6   0   0   0   0  18 98 97 96 75 74 73 66 65 64 61 59 56 52 50 49 48 45 44 
   1   0   0   0   0   0   0   0   0   0   1   0   0   0   0   7   0   0   0   0   1   0   0   0   0   0   4   0   0   6   0  15 96 76 73 68 66 61 59 57 56 53 50 48 46 40 39 
   1   0   0   0   4   2   0   4   0   0   5   0   0   0   0   0   0   0   0   0   0   0   0   0   9   0   0   0   0   0   0  18 100 99 96 95 73 72 70 69 68 66 64 61 59 56 54 53 44 39 
  10   0   0   0   0   9   0   0   0   0   0   0   0   0   0   7   0   0   0   0   0   0   0   0   0   0   0   2   0   0   0  16 99 97 95 94 93 82 76 73 72 69 68 60 56 42 40 39 
   2   1   0   0   0   7   0   0   0   0   0   0   0   0   4   0   0   0   0   0   0   0   0   0   0   0   0   0   0   0   0  14 100 98 95 92 76 73 67 65 59 58 57 54 49 38 
   4   0   0   0   5   0   0   0   0   0   0   0   0   0   0   9   0   0   0   0   0   0   0   0   0   0   0   0   0   0   0  16 100 97 96 95 94 89 86 73 68 61 57 56 54 53 51 39 
   2   0   0   0   0   0   0   0   0   0   0   0   0   0   0   0   5   0   9   0   0   0   0   0   8   0   0   0   0   0   0  14 98 97 95 94 86 76 75 74 59 57 56 53 44 42 
  10   5   0   0   0   0   0   0   0   0   0   0   0   0   3   0   0   0   0   0   0   0   0   0   0   1   0   0   0  10   0  17 100 98 96 91 86 75 74 73 68 66 64 62 61 59 57 51 44 
   6   0   0   0   0   4   0   0   0   0   0   0   1   0   0   0   0   0   0   0   0   0   0   0   0   0   4   0   2   0   0  17 99 97 95 94 93 90 88 86 73 68 66 64 59 58 56 49 39 
   2   0   0   0   0  10   5   0   0   3   0   7   0   0   3   0   0   0   0   0   0   0   0   0   0   0   0   0   0   0  10  14 98 96 93 74 73 69 68 62 57 55 54 53 48 40 
   3   0   0   0   5   0  10   0   0   4   0   0   0   0   0   0   0   1   0   0   0   0   0  10   0   0   0   0   0   6   0  19 101 99 98 97 95 93 92 86 76 75 74 68 67 66 58 56 54 53 48 
   7   0   0   0   0   0   0   0   0   0   0   0   0   0   0   0   0   0   0   0   0   0   0   0   9   5   0   0   0   0   0  18 101 99 96 95 94 93 89 88 87 86 82 73 72 70 68 58 56 39 
  10   0   0   0   0   0   7   0   0   0   0   0   0   0   0   0   0   0   0   0   0   0   0   3   0   0   8   0   9   0   0  16 101 100 99 97 95 93 90 88 87 73 72 64 60 59 56 39 
   3   0   6   0   0   0   0   0   0   0   0   0   0   0   6   0   0   0   0   0   7   0   0   0   7   0   0   0   0   0   0  15 97 96 95 93 92 84 70 67 65 64 57 56 55 49 48 
  10   0   0   0   0  10   9   0   0   0   0   0   0   0   0   0   0   0   0   0   0   2   0   0   0   0   0   0   0   0   0  17 100 97 96 95 92 84 73 72 67 66 64 60 59 55 52 51 48 
   6   0   0   0   0   0   0   6   0   0   0   0   6   0   0   0   0   0   0   9   0   0   0   7   0   9   0   0   0   0   0  20 100 99 98 96 93 92 90 89 88 83 75 74 73 72 69 67 66 60 55 53 
   6   0   0   0   0   0   8   0   0   3   0   0   0   8   0   3   0   0   0   0   5   0   0   0   5   0   0   0   0   0   0  15 96 92 85 73 72 68 67 66 62 61 60 55 54 49 48 
   2   0   0   0   0   0   0   6   2   0   0   0   0   0   0   0   0   0   1   0   0   0   0   0   3   6   0   0   0   7   0  17 101 100 97 96 95 94 92 91 74 72 71 70 69 67 60 54 51 
  10   0   4  10   0   0   8   0   0   0   0   0   7   0   0   0   0   0   0   0   0   0   0   0   0   0   0  10   0   0   5  18 100 97 96 95 94 92 91 89 87 81 74 73 72 66 64 60 56 54 
   6   0  10   0   0   0   0   6   9   0   0   0   0   0   0   0   0   0   0   0   0  10   0   0   0   0   0   0  10   0   0  18 101 99 98 97 95 92 90 89 88 84 75 72 68 67 58 56 53 52 
   5   0   0   0   0   0   4   8   0   5   0   0   0   0   0   0   0   0   0   9   0   0   0   0   0   0   0   0   0   0   5  16 101 99 98 95 94 90 89 88 84 72 69 66 65 61 53 51 
  10   0   0   0   0   0   0   7   0   5   0   5   0   0   0   0   0   9   0   8   0   6   0   0   0   0   0   3   4   0   0  13 99 96 94 88 72 71 70 68 64 59 55 51 49 
   7   0   7   0   0   0   0   0   0   9   0   0   0   0   0   0   0   0   0   0   0   0   0   0   0   0   0   0   0   0   0  10 100 95 93 86 73 72 68 66 61 40 
   9   0   0   0   0   0   0   0   0   0   8   0   0   0   0   0   0   0   9   0   0   0   0   0   0   0   0   0   0   0   0  13 97 96 93 92 91 86 84 81 76 72 64 56 48 
   3   0   0   0   5   0   0   0   0   0   0   0   0   0   0   0   0   0   0   0   0   0   0   0   0   0   0   0   7   0   0  14 97 94 92 90 89 85 82 78 74 73 71 67 65 60 
   5   0   0   0   0   0   5   0   0   0   0   0   0   0   0   0   0   6   0   0   0   8   0   0   0   0   0   0   0   0   0  15 101 97 96 93 92 91 87 86 85 84 83 82 81 66 59 
   9   0   2   0   0   0   0   6   0   0   0   0   0   0   0   0   1   0   8   0  10   0   0   0   0   0   0   0   8   0   0  10 95 94 86 85 73 71 67 61 58 54 
   8   5   0   0   0   0   0   0   0   0   0   9   0   0   0   0   0   0   0   0   0   0   0   0   0   0   0   0   0   0   7  13 97 92 91 87 85 84 83 82 81 71 67 60 59 
   1   0  10   0   5   0   0   0   0   0   0   0   7   0   0   0   0   0   0   0   0   0   0   0   0   6   8   0   0   0   0  10 97 94 88 87 86 79 68 66 64 59 
   8   0   0   0   0   0   6   0   0   0   6   0   0   0   0   6   0   0   9   2   0   0   0   0   7   0   0   0   0   0   0  10 97 96 94 93 87 85 84 69 66 56 
   1   0   0   0   0   0   0   0   0   0   0   0   0   0   0   0   0   0   0   0   0   0   0   0   6   0   0   0   0   0   0  11 98 92 91 83 81 79 78 75 74 71 67 
  10   0   0   0   0   0   0   0   0   0   0   0   0   0   0   0   0   0   0   0   0  10   0   9   0   8   0   0   0   0   2   9 92 89 88 87 85 84 81 67 58 
  10   0   0   0   0   0   0   0   0   0   8   0   0   0   4   0   0   0   0   0   0   0   0   0   0   0   0   0   0   0   0   7 90 88 86 80 77 75 53 
  10   0   0   0   0   0  10   0   0   0   0   0   0   0   0   0   0   7   0   0   0   0   0   0   0   0   0   0   0   0   0   8 100 96 92 90 88 81 78 66 
   2   0   0   0   0   0   0   0   0   0   0   7   0   0   0   0   0   0   0   0   8   0   0   0  10   0   0  10   0   0   0   8 97 93 91 89 84 82 81 66 
   2   0   0   0   0   0   0   0   0   7   0   0   3   0   0   0   8   0   0   0   0   0   0   0   0   0   0   0   0   0   0   7 93 92 88 87 81 67 58 
   1   6   5   0   0   0   9   0   6   0   0   0   0   0   0   0   0   0   0   0   0   0   0   0   0   8   0   5   0   0   0  10 95 94 90 88 84 82 81 79 78 77 
   5   0   6   0   0   0   0   0   0   0   0   0   0   0   0   5   0   0   0   0   0   0   0   0   0   0   0   0   0   4   0   8 95 93 92 86 84 81 78 77 
   2   0   0   7   0   0   0   0   0   0   8   0   0   0   0   0   0   0   0   0   0   0   0   0   0   0   0   0   0   0   0   8 94 89 84 82 80 79 78 77 
   5   0   0   0   0   0   0   0   0  10   3   0   0   0   0   0   0   0   7   0   0   7   0   0   5   0   7   0   6   0   0   7 94 89 88 87 83 79 71 
   9   0   0   0   0   0   0   0   0   4   0   0   5   0   0   0   0   6   0   8   4   0   0   0   0   0   0  10   0   0   9   3 80 77 53 
   7   0   0   0   0   0   0   0   0   0   0   0   5   0   0   0   0   0   0   0   0   0   0   0   0   0   0   0   0   0   0   6 95 90 89 86 83 72 
   6   0   0   0   0   6   4   0   0   0   0   0   0   0   0   0   0   0   0   0   0   0   0   0   0   0   0   0   0   0   6   6 93 87 85 81 79 78 
   7   0   0   0   0   0   0   0   4   0   0   0   0   0   0   6   7   0   0   0   0   0   0   0   0   0   0   0   0   0   0   5 91 82 79 78 71 
   2   7   0   0   0   0   6   0   0   0   0   0   0   0   0   0   0   0   0   0   5   0   0   0   0   0   8   0   0   0   0   5 91 87 81 79 78 
   5   0   0   0   0   0   4   0   0   0   0   0   0   0   6   0   0   0   0   0   0   0   0   0   0   0   0   0   0   0   0   5 90 88 84 82 78 
  10   0   0   0   4   0   0   0   0   0   0   0   0   0   0   0   0   0   0   0   0   0   0   0   0   0   0   0   0   0   0   5 86 82 80 78 77 
   7   0   0   0   6   0   0   0   7   0   0   0   0   0   0   0   0   0   0   0   0   0   0   0   7   0   0   7   0   0   8   4 80 79 78 71 
   8   0   0   0   0   0   0   0   0   8   7   0   0   7   0   5   0   0   0   0   0   0   0   0   0   0   0   0   0   0   0   4 99 90 82 72 
   6   6   0   0   0   4   0   6   6   0   0   0   0   6   0   0   0   0   0   0   0   0   0   0   0   0   7   4   0   0   0   4 83 80 79 77 
   2   0   0   0   0   0   0   0   0   0   0   0   0   0   0   0   0   0   0   0   0   0   0   0   0   6   0   0   4   0   0   4 89 80 78 77 
   8   0   0   0   0   0   0   0   0  10   0   0   7   0   0   0   0   0   0   4   0   0   0   0   0   0   8   0   0   0   0   4 86 80 79 77 
  10   7   0   0   0   0   0   0   0   0   0   0   0   6   0   0   0   0   4   0   0   0   0   7   5   0   0   0   0   0   0   4 82 81 79 78 
   3   0   0   0   0   0   0   0   0   0   0   6   0   0   0   0   0   0   0   0   0   0   0   0   0   0   7   5   0   0   0   4 90 79 78 77 
   7   6   8   0   0   0   0   0   0   7   0   0   0   0   0   0   0   0   0   0   0   0   0   0   0   0   0   0   0   0   0   4 94 90 78 77 
   8   0   6   0  10   0   0   0   0   0   0   0   0   0   0   0   0  10   0   0   0   0   0   0   8   0   0   0   0   0   0   3 85 82 78 
   2   0   4   0   0   4   0   0   0   0   0   0   0   0   0   0   0   0   0   0   0   0   0   0   0   5   0   0   0   0   0   3 83 81 79 
   6   0   0   0   0   0   0  10   0   0   0   0   7   0   0   0   0   0   0   0   0   0   0   0   0   0   0   0   0   0   0   2 80 71 
   7   0   9   0   0   0   0   3   0   0   5   5   0   0   0   0   8   0   0   0   3   0   0   0   0   0   0   0   0   0   0   2 80 77 
   8   0   0   0   0   0   0   0   0   0   0   0  10   0   0   0   4   0   4   0   0   0   0   0   5   0   0   0   0   0   0   2 83 81 
   2   0   0   0   0   0   0   5   0   0   0   0   0   0   0   0   3   0   0   0   0   7   0   6   0   0   4   7   0   0   0   2 86 80 
   6   0   6   0   0   0   7  10   8   0   0   0   0   8   0   0   0   0   0   0   0   0   0   0   0   0   0   0   0   5   0   2 90 83 
   6   0   6   0   0   0   0   0   0   0   0   0   0   0   8   0   0   0   0   4   0   4   0   3   0   0   0   0   0   0   0   1 77 
   7   0   0   5   0   0   5   0   0   5   0   0   0   0   0   0   0   4   0   0   0   0   0   0   4   0   0   0   0   0   0   1 77 
  10   0   0   0   0   0   0   0   0   0   0   0   0   0   0   0  10   0   0   0   0   0   1   0   0   0   9   0   0   0   0   1 79 
   2   8   0   0   0   9   0   0   0   0   0   0   0   0   0   0   0   0   0   0   0   0   0   0   0   0   5   0   0   0   0   1 84 
   5   0   0   0   0   0   0   0   0   0   0   0   0   0   0   0   0   0   0   0   5   0   0   0   0   0   0   0   0   0   0   1 85 
   1   0   0   0   9   0   0   0   0   0   0   0   0   0   0   0   0   0   0   0   0   0   0   0   0   0   0   0   6   0   0   1 77 
   6   0   0   7   0   0   0   0   0   0   0   0   8   9   0   0   0   0   0   0   9   0   0   0   0   0   0   0   7   6   0   1 102
   5   0   0   0   0   0   0   0   0   0   5   0   0   0   0   0   4   0  10   0   0   0   0   0   0   0   0   0   0   0   0   1 102
   4   0   0   0   0   0   0   0   0   0   0   0   0   0   0   0   0   0   0   0   4   0   0   0   0   8   0   0   0   0   0   1 102
   7   0   0   0   0   0   0   0   4   0   0   0   0   0   6   0   0   0   0   0   0   0   0   0   0   0   0   0   0   9   0   1 102
   2   6   0   0   0   0   0   0   0   0   0   0   0   6   0   0   9   0   0   0   0   0   6   0   0   0   0   0   8   0   0   1 102
   1   0   0   0   0   0   4   0   0   0   0   0   0   0  10   0   0   0   0   7   0   0   0   0   6   0   0   0   0   0   0   1 102
   7   0   0   0   0   0   0   0   0   0   0   0   0   0   0   0   6   0   0   0   9   0   0   0   4   0   0   0   0   8   7   1 102
   9   0   0   0   0   2   6   0   0   0   0   9   0   0   0   0   0   0   0   0   0   0   0   0   0   0   0   0   0   0   0   1 102
  10   6   0   0   0   0   0   0   0   0   0   0   0   0   0   0   6   0   0   0   0   0   0   8   5   9   0   0   0   3   0   1 102
  10   0   0   0   0   0   0   0   0   0   0   0   0   0   0   0   0   0   0   0   0   0   0   0   0   0   0   0   0   0   0   1 102
   3   0   0   0   0   6   0   0   0   0   0   0   0   0  10   0   0   0   0   0   8   0   0   0   0   0   0   0   0   6   0   1 102
   9   0   0   0   5   0   7   0   0   0   0   0   0   0   0   0   0   0   0   0   0   0   6   0   0   0   0   0   0   0   0   1 102
   1   0   0   0   0   0   0   0   0   7   0   0   0   0   0   0   0   5   0   0   0   6   8   0   0   0   4   2   0   0   0   1 102
   1   0   0   0   0   0   6   0   0   0   0   0   0   0   0   0   0   0   0   0   0   0   0   0   0   0   0   0   0   0   0   1 102
   5   0   0   0  10   0   0   0   4   0   0   0   0   0   0   0   6   0   0   0   0   0   0   0   0   0   0   0   8   4   0   1 102
   1   0   0   0   0   0   0   0   0   0   0   5   0   4   0   0   0   0   0   0   3   2   0   0   0   0   0   0   0   0   0   1 102
   3   0   0   0   0   0   0   0   7   0   0   0   0   4   0   5   0   0   0   8   0   0   0   0   0   0   0   0   4   0   0   1 102
   3   0   0   0   0   0   0   0   6   0   0   0   0   0   0   7   0   0   0   6   0   0   0   0   0   0   0   7   0   0   0   1 102
   4   8   0   0   0   0   0   0   0   0   8   0   6   0   0   0   0   0   0   0   0   0   0   0   0   3   0   0   0   0   0   1 102
   9   0   0   0   4   0   5   0  10   0   0   6   0   0   0   8   0   0   0   0   8   0   0   0   0   0   0   0   0   0   0   1 102
   9   0   0   0   0   0   2   0   0   6   0   0   0   0   0   9   0   0   4   0   0   0   5   0   0   6   0   0   0   0   0   1 102
   7   0   0   0  10   5   0   0   0   0   8   0   0   0   0   5   0   0   0   0   0   0   0   0   0   4   0   0   0   0   0   1 102
   3   8   0   0   0   0   0   0   0   4   0   0   0   0   0   7   7   0   0   0   0   0  10   7   0   0   6   0   0   0   0   1 102
   7   5   0   0   0   0   6   0   5   5   0   0   0   0   0   0   0   0   0   0   0   6   0   5   0   0   0   0   0   0   0   1 102
   1   0   0   0   0   0   0   0   0   0   0   0   0   7   0   0   0   0   0   0   5   0   6   0   0   0   0   0   0   0   0   1 102
   0   0   0   0   0   0   0   0   0   0   0   0   0   0   0   0   0   0   0   0   0   0   0   0   0   0   0   0   0   0   0   0 
